p cnf 60 154
-5 -1 0
-5 -2 0
5 1 2 0
-6 1 0
-6 2 0
6 -1 -2 0
-7 -5 0
-7 -6 0
7 5 6 0
-8 1 0
-8 7 0
8 -1 -7 0
-9 2 0
-9 -3 0
9 -2 3 0
-10 -8 0
-10 -9 0
10 8 9 0
-11 -3 0
-11 -4 0
11 3 4 0
-12 3 0
-12 4 0
12 -3 -4 0
-13 -11 0
-13 -12 0
13 11 12 0
-14 4 0
-14 13 0
14 -4 -13 0
-15 2 0
-15 -14 0
15 -2 14 0
-16 -8 0
-16 -15 0
16 8 15 0
-17 2 0
-17 16 0
17 -2 -16 0
-18 -14 0
-18 -17 0
18 14 17 0
-19 14 0
-19 17 0
19 -14 -17 0
-20 -18 0
-20 -19 0
20 18 19 0
-21 8 0
-21 9 0
21 -8 -9 0
-22 20 0
-22 -21 0
22 -20 21 0
-23 -10 0
-23 -22 0
23 10 22 0
-24 2 0
-24 -23 0
24 -2 23 0
-25 3 0
-25 24 0
25 -3 -24 0
-26 -3 0
-26 -24 0
26 3 24 0
-27 -25 0
-27 -26 0
27 25 26 0
28 -2 27 0
-29 1 0
-29 -23 0
29 -1 23 0
-30 -1 0
-30 -4 0
30 1 4 0
-31 1 0
-31 4 0
31 -1 -4 0
-32 -30 0
-32 -31 0
32 30 31 0
-33 -16 0
-33 23 0
33 16 -23 0
-34 16 0
-34 -23 0
34 -16 23 0
-35 -33 0
-35 -34 0
35 33 34 0
-36 32 0
-36 35 0
36 -32 -35 0
-37 16 0
-37 -32 0
37 -16 32 0
-38 -36 0
-38 -37 0
38 36 37 0
-39 2 0
-39 -38 0
39 -2 38 0
-40 29 0
-40 39 0
40 -29 -39 0
-41 -29 0
-41 -39 0
41 29 39 0
-42 -40 0
-42 -41 0
42 40 41 0
-43 -24 0
-43 -42 0
43 24 42 0
-44 24 0
-44 42 0
44 -24 -42 0
-45 -43 0
-45 -44 0
45 43 44 0
-46 4 0
-46 45 0
46 -4 -45 0
-47 -4 0
-47 -45 0
47 4 45 0
-48 -46 0
-48 -47 0
48 46 47 0
-49 25 0
-49 48 0
49 -25 -48 0
-50 -25 0
-50 -48 0
50 25 48 0
-51 -49 0
-51 -50 0
51 49 50 0
52 27 51 0
53 -27 -51 0
-54 -52 0
-54 -53 0
-55 51 0
-55 54 0
-56 -8 0
-56 55 0
57 -28 56 0
58 -8 55 0
-59 -57 0
-59 -58 0
-60 -5 0
-60 59 0
60 0
